 200 99 
 56 81 47 5 24 91 5 42 23 22 5 28 
 28 37 84 25 37 77 78 24 71 27 26 34 
 19 17 66 100 95 8 54 69 18 72 65 22 
 14 44 31 91 56 11 37 55 82 89 92 46 
 56 8 1 85 24 73 45 79 40 39 87 56 
 95 11 49 55 41 45 13 51 94 88 33 89 
 86 49 95 30 91 42 10 37 84 51 64 90 
 56 28 100 56 28 69 75 3 60 71 90 15 
 64 76 24 
 98 
 1 2 3 4 5 6 7 8 9 10 11 12 
 13 14 15 16 17 18 19 20 21 22 24 25 
 26 27 28 29 30 31 32 33 34 35 36 37 
 38 39 40 41 42 43 44 45 46 47 48 49 
 50 51 52 53 54 55 56 57 58 59 60 61 
 62 63 64 65 66 67 68 69 70 71 72 73 
 74 75 76 77 78 79 80 81 82 83 84 85 
 86 87 88 89 90 91 92 93 94 95 96 97 
 98 99 
 83 
 1 2 3 4 5 6 7 8 9 10 11 13 
 14 15 17 18 19 21 23 24 25 26 27 28 
 29 30 32 33 34 35 36 37 39 40 42 45 
 46 47 48 49 51 52 53 54 57 59 60 61 
 62 63 64 65 66 67 68 69 70 71 72 73 
 74 75 76 77 78 79 80 81 82 83 84 85 
 86 87 89 90 91 92 94 95 96 98 99 
 19 
 15 17 19 20 21 25 28 31 32 36 37 71 
 72 77 79 83 85 89 90 
 61 
 2 3 4 6 7 8 9 11 14 15 16 17 
 19 20 22 23 24 26 27 28 32 33 34 35 
 39 41 42 43 45 46 48 49 50 51 54 55 
 57 59 60 61 63 64 68 69 70 72 73 74 
 75 76 77 78 83 84 85 87 88 91 93 94 
 96 
 89 
 1 2 3 4 7 8 9 10 11 12 13 14 
 15 17 18 19 20 21 22 23 24 25 26 27 
 28 29 30 31 32 33 34 35 37 38 39 40 
 41 42 43 45 46 47 48 49 50 51 52 54 
 55 56 57 58 60 61 62 63 64 65 66 67 
 68 69 70 71 73 74 75 76 77 78 80 81 
 82 83 84 85 86 87 88 89 90 91 92 93 
 94 95 96 98 99 
 66 
 1 2 3 4 5 6 7 8 9 12 13 14 
 15 16 19 20 21 22 24 25 26 27 30 32 
 33 35 36 37 41 44 45 47 49 51 52 54 
 55 56 57 58 59 60 63 65 66 68 69 70 
 74 75 76 78 79 82 84 86 88 90 91 93 
 94 95 96 97 98 99 
 54 
 1 2 3 7 8 11 12 13 14 15 16 17 
 20 25 26 28 30 31 32 33 34 35 36 37 
 38 39 40 41 42 43 44 47 49 50 51 54 
 55 57 60 61 62 64 67 68 69 73 75 81 
 85 86 90 92 94 98 
 46 
 5 8 9 11 14 15 16 18 19 22 23 25 
 26 29 32 33 34 36 39 41 42 44 45 47 
 48 49 50 51 54 55 56 60 61 62 67 69 
 71 73 75 82 83 88 89 93 96 98 
 67 
 1 3 4 5 6 7 9 10 11 12 13 15 
 16 17 18 20 22 24 25 26 31 32 34 35 
 37 38 40 42 44 46 47 48 50 51 52 53 
 57 59 61 62 63 65 66 69 70 71 72 73 
 74 77 80 82 83 84 86 87 89 90 91 92 
 93 94 95 96 97 98 99 
 30 
 1 2 4 10 11 12 15 17 20 23 25 26 
 29 34 40 41 44 45 49 54 60 63 65 73 
 76 79 82 89 90 96 
 32 
 4 8 14 15 16 23 24 27 32 33 35 36 
 38 39 46 55 58 60 62 64 70 74 76 78 
 79 80 82 89 90 91 92 95 
 2 
 4 14 
 23 
 2 19 22 23 31 32 40 41 42 45 47 48 
 56 59 63 67 69 75 78 81 96 98 99 
 30 
 1 2 5 6 7 8 9 12 13 15 20 25 
 29 34 35 36 38 42 44 47 61 63 72 75 
 77 84 87 90 92 96 
 49 
 1 2 6 9 10 11 14 16 18 19 21 24 
 26 29 30 32 33 35 36 37 39 40 41 43 
 46 47 51 55 56 57 61 63 68 69 70 71 
 74 76 77 79 80 81 85 87 90 91 93 94 
 97 
 5 
 12 34 49 54 80 
 2 
 38 65 
 19 
 3 8 9 15 20 26 31 44 53 55 56 57 
 61 65 70 73 82 83 89 
 28 
 1 4 5 11 15 19 20 22 29 31 35 37 
 46 47 51 55 57 58 59 60 61 65 68 76 
 77 78 86 94 
 80 
 1 2 3 4 5 6 7 8 9 10 11 13 
 14 15 17 18 19 20 21 22 23 25 26 28 
 30 32 33 34 36 37 38 39 40 41 42 44 
 45 46 49 50 52 53 55 57 59 60 61 62 
 63 64 65 68 69 70 71 72 73 74 75 77 
 78 79 80 81 82 83 84 85 86 87 88 89 
 90 91 92 93 95 96 97 99 
 99 
 1 2 3 4 5 6 7 8 9 10 11 12 
 13 14 15 16 17 18 19 20 21 22 23 24 
 25 26 27 28 29 30 31 32 33 34 35 36 
 37 38 39 40 41 42 43 44 45 46 47 48 
 49 50 51 52 53 54 55 56 57 58 59 60 
 61 62 63 64 65 66 67 68 69 70 71 72 
 73 74 75 76 77 78 79 80 81 82 83 84 
 85 86 87 88 89 90 91 92 93 94 95 96 
 97 98 99 
 40 
 1 3 5 8 10 14 17 18 20 24 27 31 
 34 37 38 45 53 54 55 56 57 61 64 67 
 71 72 74 77 79 80 83 86 88 89 90 91 
 92 95 96 98 
 8 
 30 37 42 59 60 63 67 76 
 5 
 17 28 35 53 87 
 47 
 1 2 5 6 7 9 14 16 19 20 22 23 
 25 26 29 31 38 39 40 42 43 44 45 48 
 51 52 55 56 57 59 61 72 73 75 76 78 
 80 81 82 83 87 88 90 93 94 97 98 
 10 
 6 13 18 28 34 43 55 65 68 70 
 44 
 3 6 7 8 9 10 14 15 16 20 22 24 
 25 26 29 33 37 41 42 43 44 45 47 48 
 51 53 54 58 60 64 66 67 68 69 72 74 
 82 85 86 88 89 97 98 99 
 87 
 1 2 3 4 5 6 7 8 9 10 11 13 
 14 15 16 17 18 20 21 24 25 26 27 28 
 29 32 33 35 36 37 38 39 40 41 42 43 
 45 46 47 48 49 50 51 52 53 54 55 56 
 57 58 59 61 62 63 65 66 67 69 70 71 
 72 73 74 75 76 77 78 79 80 81 82 83 
 84 85 86 87 88 89 90 91 92 93 94 95 
 96 98 99 
 65 
 1 2 3 4 8 10 11 12 13 15 16 17 
 20 21 24 26 27 29 31 32 33 36 37 39 
 40 41 42 44 45 48 49 50 51 52 56 57 
 58 60 62 63 64 65 66 68 69 70 71 72 
 73 76 78 79 81 82 83 84 86 89 90 91 
 93 94 95 96 98 
 68 
 1 2 3 5 8 9 13 15 16 17 19 20 
 21 24 25 26 27 28 30 31 32 33 34 35 
 36 38 39 41 42 44 46 48 49 50 51 53 
 54 55 57 58 59 60 61 62 63 64 67 68 
 69 70 72 75 76 77 78 80 83 85 87 88 
 91 92 93 94 95 96 97 98 
 6 
 18 24 55 62 80 97 
 4 
 40 51 79 81 
 38 
 2 4 5 9 12 16 19 21 22 27 28 31 
 33 37 38 39 41 49 51 54 56 58 59 60 
 63 64 66 69 71 74 80 81 84 86 87 94 
 95 97 
 8 
 7 11 30 50 67 81 85 97 
 82 
 1 2 3 5 7 8 9 10 11 14 15 18 
 19 20 22 23 24 25 26 27 28 29 30 31 
 32 33 34 35 39 40 41 42 43 44 45 47 
 48 49 50 51 52 53 54 55 56 57 58 59 
 60 61 62 63 64 65 66 67 68 71 72 74 
 75 76 77 78 79 80 81 82 83 85 86 87 
 88 89 90 91 94 95 96 97 98 99 
 75 
 2 3 4 5 7 8 9 10 11 12 14 15 
 16 17 18 19 21 22 23 26 27 29 31 32 
 33 34 35 36 37 38 39 40 41 42 43 44 
 45 50 51 54 55 57 59 60 61 63 64 65 
 67 68 69 70 72 73 75 76 77 79 80 81 
 82 83 84 85 86 87 89 90 91 93 95 96 
 97 98 99 
 57 
 1 5 6 7 12 15 16 17 18 19 20 22 
 23 24 25 27 29 30 33 34 36 37 41 43 
 44 45 46 49 51 52 55 58 60 61 65 67 
 69 72 73 74 75 78 79 80 81 82 83 84 
 85 87 88 89 90 94 95 96 98 
 16 
 18 21 25 28 33 36 39 47 48 54 57 59 
 65 82 93 97 
 14 
 2 6 13 18 31 36 49 50 59 71 77 87 
 88 98 
 62 
 3 5 6 7 8 9 10 11 15 17 20 21 
 24 26 27 28 30 31 35 36 37 39 40 44 
 46 47 48 49 51 53 54 55 56 58 59 60 
 61 64 65 67 68 70 71 74 76 77 78 79 
 83 84 85 86 87 88 89 91 92 93 94 96 
 97 98 
 71 
 1 2 3 4 5 6 7 9 11 12 13 15 
 16 17 18 20 21 22 23 24 25 26 27 28 
 29 32 33 36 37 38 39 43 44 45 46 47 
 50 51 54 58 59 61 62 63 64 65 66 67 
 68 71 72 73 74 75 77 78 79 80 81 82 
 83 84 85 87 90 91 94 95 96 98 99 
 95 
 1 2 3 4 5 6 7 8 9 10 11 12 
 13 14 15 16 17 18 19 20 22 23 24 25 
 26 27 28 29 31 32 33 34 35 36 37 38 
 39 40 41 42 44 45 47 48 49 50 51 52 
 53 54 55 56 57 58 59 60 61 62 63 64 
 65 66 67 68 69 70 71 72 73 74 75 76 
 77 78 79 80 81 82 83 84 85 86 87 88 
 89 90 91 92 93 94 95 96 97 98 99 
 29 
 5 11 12 13 14 18 19 21 25 26 37 43 
 48 53 54 55 57 59 61 63 67 69 70 82 
 84 88 89 90 92 
 47 
 1 3 4 5 6 9 11 12 15 16 21 22 
 28 29 30 32 33 34 35 39 41 42 49 51 
 52 54 55 60 63 65 66 68 69 72 75 77 
 79 80 82 83 85 86 87 94 95 96 99 
 11 
 11 19 28 34 49 50 52 63 64 68 92 
 61 
 1 2 3 4 7 9 10 11 13 15 16 20 
 21 22 23 24 25 26 27 28 29 30 31 32 
 33 34 35 37 38 41 43 44 45 46 50 51 
 52 53 54 57 58 60 63 65 68 69 70 73 
 74 78 79 83 84 86 87 89 90 91 92 93 
 95 
 21 
 11 13 16 17 24 26 28 30 31 32 39 42 
 50 53 55 61 63 68 72 80 91 
 61 
 1 2 4 8 9 10 11 12 14 17 18 20 
 21 22 24 25 26 29 30 31 32 35 36 37 
 38 39 40 43 46 49 51 52 55 57 58 63 
 64 65 66 67 68 69 71 73 75 76 77 78 
 82 83 85 86 88 90 91 92 94 95 97 98 
 99 
 42 
 1 2 4 5 7 11 13 14 19 20 23 29 
 32 36 37 38 39 40 41 42 43 44 46 49 
 52 53 54 56 58 59 66 69 73 75 77 79 
 80 81 89 93 94 95 
 12 
 4 22 23 26 27 44 45 46 58 69 71 97 
 29 
 2 11 16 23 24 25 26 30 31 38 42 43 
 45 49 54 58 59 60 61 64 74 75 79 80 
 89 90 92 98 99 
 26 
 8 13 17 19 33 34 35 38 40 41 44 47 
 54 56 63 68 74 78 79 80 82 83 86 95 
 98 99 
 40 
 4 5 8 11 12 13 14 15 17 18 19 22 
 24 25 26 28 31 32 34 37 38 46 50 52 
 55 56 57 61 68 73 75 79 80 85 89 93 
 94 95 96 99 
 67 
 1 2 3 4 5 6 8 10 11 15 18 19 
 20 21 22 23 24 25 26 27 28 29 30 31 
 32 34 35 36 38 40 41 44 45 46 47 49 
 52 53 54 55 56 57 58 59 60 61 62 63 
 66 67 68 69 70 72 73 80 85 88 89 90 
 91 93 95 96 97 98 99 
 6 
 5 59 61 84 89 94 
 91 
 1 2 3 4 5 6 7 8 9 10 11 12 
 13 14 15 16 17 18 19 20 21 23 24 25 
 26 27 29 30 31 32 33 34 35 36 38 39 
 40 41 42 43 44 45 46 47 48 49 50 51 
 52 53 54 55 56 57 58 60 62 63 64 65 
 66 67 68 70 71 72 73 74 75 76 78 79 
 80 81 82 83 84 86 87 88 89 90 91 92 
 93 94 95 96 97 98 99 
 97 
 1 2 3 4 5 6 7 8 9 10 11 12 
 13 14 15 16 17 18 19 20 21 22 23 24 
 25 26 27 28 29 30 31 32 33 34 35 36 
 37 38 39 40 41 42 43 44 45 46 47 48 
 49 50 51 52 53 54 55 56 57 58 59 60 
 61 62 63 64 65 66 67 68 69 70 71 73 
 74 75 76 77 78 79 80 81 82 83 84 85 
 86 87 88 89 90 91 93 94 95 96 97 98 
 99 
 82 
 1 2 3 5 6 7 8 9 11 12 13 14 
 15 17 18 19 20 21 22 23 24 25 26 27 
 28 30 31 33 34 35 36 37 38 39 40 41 
 42 43 44 45 46 47 48 50 51 52 53 55 
 56 57 58 59 60 61 62 63 65 66 70 71 
 72 73 74 75 77 78 79 80 81 82 83 84 
 85 86 87 88 90 91 92 93 94 96 
 92 
 1 2 3 4 5 6 7 8 9 10 11 12 
 13 14 15 17 18 19 20 21 23 24 25 26 
 27 28 29 30 31 32 33 35 36 37 38 39 
 40 41 43 45 46 47 48 49 50 51 52 53 
 54 55 56 57 59 60 61 62 63 64 65 66 
 67 68 69 70 71 73 74 75 76 77 78 79 
 80 81 82 83 84 85 86 87 88 89 90 91 
 92 93 94 95 96 97 98 99 
 45 
 6 7 11 12 13 15 17 20 23 24 25 26 
 27 28 30 31 33 36 37 39 42 43 44 45 
 46 49 52 54 56 59 62 63 64 69 72 74 
 76 77 79 84 89 92 93 94 99 
 9 
 2 11 12 20 29 33 41 72 85 
 59 
 1 2 3 4 7 8 9 11 12 13 14 16 
 19 20 21 22 23 24 25 27 30 33 34 37 
 38 41 42 44 45 47 48 50 51 53 58 59 
 60 64 65 66 67 68 69 73 74 75 76 78 
 79 81 82 83 84 88 90 91 94 95 99 
 72 
 1 4 5 6 7 8 10 12 13 15 16 18 
 19 20 22 24 25 27 28 29 30 31 33 34 
 35 36 38 39 42 43 44 45 46 47 51 53 
 54 55 56 57 58 59 60 61 63 64 65 67 
 68 69 70 71 72 73 74 75 76 77 80 82 
 83 84 85 86 88 89 90 91 93 94 96 97 
 82 
 1 2 3 4 5 6 8 9 10 11 12 13 
 15 16 18 19 21 22 23 24 25 26 27 28 
 29 30 32 33 36 37 39 41 42 44 45 46 
 49 50 51 52 53 57 58 59 60 62 63 64 
 65 66 67 68 69 70 71 72 73 74 75 76 
 77 78 79 80 81 82 83 84 85 86 87 88 
 89 90 91 92 93 94 96 97 98 99 
 48 
 1 2 6 7 8 10 12 17 23 24 25 26 
 27 29 30 32 33 39 40 41 45 46 48 50 
 52 53 54 55 57 58 60 61 63 64 67 70 
 72 74 75 76 83 84 86 88 89 90 92 95 
 25 
 3 5 8 11 17 23 32 33 36 45 53 54 
 56 63 64 71 72 74 76 78 79 85 93 96 
 99 
 5 
 31 55 72 73 85 
 37 
 1 4 12 16 17 18 22 23 25 32 34 35 
 41 42 43 45 46 47 51 57 61 62 63 64 
 65 79 80 82 83 84 85 87 89 90 94 96 
 98 
 10 
 15 23 34 40 43 50 51 60 80 92 
 2 
 50 60 
 2 
 31 61 
 47 
 1 3 4 5 6 7 10 12 15 17 18 19 
 20 24 26 28 29 31 33 37 38 40 44 48 
 49 50 51 53 54 55 56 57 58 59 63 66 
 67 70 71 74 77 81 82 87 91 97 98 
 2 
 59 74 
 81 
 1 2 4 5 6 7 8 9 11 12 13 14 
 17 18 19 20 21 22 23 24 25 26 27 28 
 29 30 32 33 34 36 37 38 39 41 42 43 
 45 46 47 48 50 51 52 53 54 55 56 57 
 58 59 61 65 66 67 68 69 70 71 72 73 
 74 75 76 77 78 79 80 81 82 83 84 85 
 86 89 92 93 95 96 97 98 99 
 76 
 1 3 4 5 6 7 9 10 11 13 14 15 
 16 17 19 20 21 22 23 24 25 26 29 30 
 31 32 34 35 36 37 38 39 40 41 44 46 
 48 50 51 52 53 54 55 56 57 58 59 60 
 61 62 63 64 66 67 70 71 72 73 76 77 
 78 80 81 84 86 87 88 90 91 92 93 94 
 95 96 98 99 
 44 
 6 12 15 17 19 21 24 25 28 29 30 31 
 33 35 38 42 43 44 45 46 47 50 51 52 
 56 58 61 62 65 66 67 68 71 75 76 77 
 78 79 83 89 90 96 97 98 
 66 
 2 3 5 7 10 11 12 14 15 18 19 23 
 24 25 27 30 31 32 35 37 38 39 40 41 
 42 43 44 45 46 47 48 49 51 54 56 60 
 62 63 66 68 69 70 72 74 75 76 77 78 
 79 81 82 83 84 86 87 88 89 90 91 92 
 93 94 95 96 97 99 
 84 
 1 2 3 4 5 6 7 8 9 10 11 12 
 14 15 16 18 19 20 21 22 23 25 26 27 
 28 29 30 31 33 34 35 36 37 40 41 42 
 43 44 45 46 49 50 51 52 53 54 55 56 
 57 58 59 60 61 63 65 66 67 68 69 70 
 72 73 74 76 77 78 80 81 82 83 84 85 
 86 87 88 89 90 91 93 94 95 97 98 99 
 80 
 1 2 3 5 6 7 8 9 10 11 12 15 
 16 17 18 19 20 22 23 24 25 26 27 28 
 29 30 31 33 34 35 36 37 38 39 40 42 
 43 46 48 50 51 52 53 55 56 57 58 59 
 60 61 62 63 65 66 68 69 72 73 74 75 
 76 77 78 79 80 82 83 84 85 86 87 88 
 89 90 91 92 95 97 98 99 
 95 
 1 2 3 4 5 6 7 8 9 10 11 12 
 14 15 16 17 18 19 20 21 22 23 24 25 
 26 27 28 29 30 31 32 33 34 35 36 37 
 38 39 40 41 42 43 44 45 46 47 49 50 
 51 52 53 54 55 56 57 58 59 61 62 63 
 64 65 66 67 69 70 71 72 73 74 75 76 
 77 78 79 80 81 82 83 84 85 86 87 88 
 89 90 91 92 93 94 95 96 97 98 99 
 53 
 1 4 6 7 11 12 13 14 15 17 19 20 
 24 25 27 28 29 35 36 37 40 41 42 48 
 49 50 52 54 55 56 59 60 61 62 64 65 
 66 72 73 74 75 76 78 80 81 83 85 86 
 87 90 93 94 96 
 9 
 1 7 24 28 37 46 77 85 99 
 57 
 2 4 5 7 8 11 14 16 18 19 20 22 
 27 28 31 33 34 35 36 38 40 42 43 44 
 45 47 50 51 52 54 56 57 61 62 63 64 
 66 67 70 72 75 76 78 79 80 81 82 83 
 84 87 88 89 90 93 95 97 98 
 93 
 1 2 3 4 5 6 7 8 9 10 11 12 
 13 14 15 16 17 18 19 20 21 22 23 24 
 25 26 27 28 29 30 31 32 33 34 35 36 
 37 38 39 40 41 42 44 45 46 47 48 50 
 52 53 54 55 56 58 59 60 61 62 63 64 
 65 66 67 68 69 70 72 73 74 75 76 77 
 78 80 81 82 83 84 85 86 87 88 89 90 
 91 92 93 94 95 96 97 98 99 
 18 
 6 9 10 33 39 44 45 63 64 69 72 75 
 79 84 87 88 93 99 
 54 
 1 5 6 7 8 9 10 11 16 21 22 23 
 24 25 27 28 29 31 38 39 41 43 45 49 
 52 53 55 56 57 58 59 61 67 68 69 71 
 72 73 74 77 79 80 82 83 87 88 89 90 
 92 93 95 97 98 99 
 43 
 2 5 6 7 8 9 11 12 17 21 22 23 
 24 25 26 27 28 33 37 40 41 42 49 50 
 51 55 58 62 64 66 67 68 75 78 79 80 
 81 85 87 88 89 91 99 
 34 
 6 7 10 13 14 16 17 18 21 23 28 36 
 43 44 53 54 55 56 62 64 68 70 72 73 
 75 77 82 83 85 87 90 92 94 98 
 35 
 4 5 7 9 11 12 13 16 21 26 30 31 
 38 43 46 50 51 52 53 55 60 61 65 68 
 71 73 75 80 82 83 84 85 87 93 99 
 30 
 2 3 9 12 13 19 25 30 32 33 34 36 
 39 40 42 48 50 51 52 54 56 58 61 64 
 66 69 71 77 86 94 
 69 
 1 2 3 5 7 8 10 12 13 14 15 16 
 17 18 19 21 22 23 27 28 30 31 33 35 
 36 37 39 40 41 44 47 49 50 51 52 53 
 54 56 57 59 60 61 62 63 65 67 68 69 
 70 71 73 74 77 78 80 81 82 83 84 85 
 88 89 90 91 92 94 95 96 98 
 34 
 1 6 8 13 20 22 23 25 28 29 33 34 
 36 43 46 49 52 57 59 61 65 66 70 72 
 74 75 78 83 84 86 87 89 92 98 
 41 
 1 6 7 8 9 12 13 14 17 19 24 26 
 35 36 38 39 40 43 44 45 46 47 48 55 
 56 60 61 63 64 65 66 69 73 74 78 87 
 91 92 93 94 98 
 39 
 1 2 3 5 8 13 14 17 27 30 31 32 
 33 35 37 42 45 49 53 55 57 59 62 65 
 67 68 69 70 72 76 77 79 82 86 89 91 
 95 96 97 
 18 
 2 11 17 28 32 34 43 46 48 69 70 71 
 72 78 79 81 85 93 
 4 
 4 37 55 80 
 94 
 1 2 3 4 5 6 7 8 9 10 11 12 
 13 14 15 16 17 18 19 20 22 23 24 25 
 26 27 28 29 30 31 32 33 34 35 36 37 
 38 39 40 41 42 43 44 45 46 47 48 49 
 50 51 52 53 54 56 57 58 59 60 61 62 
 64 65 66 67 68 69 70 71 72 74 75 76 
 77 78 79 80 81 82 83 85 86 87 88 89 
 90 91 92 93 94 95 96 97 98 99 
 9 
 3 4 5 8 38 46 51 58 89 
 98 
 1 2 3 4 5 6 7 8 9 10 11 12 
 13 14 15 16 17 18 19 20 21 22 23 24 
 25 26 27 28 29 30 31 32 33 34 35 36 
 37 38 39 41 42 43 44 45 46 47 48 49 
 50 51 52 53 54 55 56 57 58 59 60 61 
 62 63 64 65 66 67 68 69 70 71 72 73 
 74 75 76 77 78 79 80 81 82 83 84 85 
 86 87 88 89 90 91 92 93 94 95 96 97 
 98 99 
 11 
 1 8 33 49 60 66 67 68 69 75 96 
 74 
 1 2 4 5 6 7 8 10 11 12 13 14 
 16 18 19 21 22 23 25 27 28 29 31 33 
 34 35 36 37 38 39 40 41 42 43 44 46 
 47 48 49 50 51 52 53 57 58 59 60 62 
 63 65 66 67 68 71 72 74 75 76 77 79 
 80 81 83 85 86 87 89 92 93 94 96 97 
 98 99 
 37 
 2 4 17 26 32 33 34 35 37 40 41 42 
 47 48 49 51 56 58 60 63 65 67 68 71 
 73 74 75 77 80 82 86 90 91 92 93 94 
 95 
 82 
 1 2 3 4 5 6 7 8 9 10 11 12 
 14 15 17 18 22 23 25 26 28 29 30 31 
 32 33 34 36 37 38 40 41 42 43 44 46 
 47 48 51 52 54 55 56 57 58 59 60 61 
 63 64 65 66 67 68 69 70 71 72 73 74 
 75 76 77 78 79 80 81 83 84 85 87 88 
 89 90 91 92 93 94 95 96 98 99 
 29 
 5 8 9 13 14 22 25 28 29 33 50 51 
 55 58 60 64 65 68 69 71 78 82 84 90 
 93 94 95 96 97 
 40 
 2 3 4 6 7 8 9 11 18 20 21 23 
 25 31 32 33 34 35 38 39 40 41 45 46 
 52 55 59 61 63 70 74 77 81 84 87 94 
 96 97 98 99 
 87 
 2 3 4 5 6 7 8 9 10 11 12 13 
 14 15 16 17 18 19 20 21 22 23 24 25 
 26 28 29 30 31 32 33 34 35 36 37 38 
 40 41 42 44 45 46 47 49 50 51 52 53 
 54 55 56 57 58 59 61 62 63 64 65 66 
 67 68 69 70 71 72 73 74 75 76 77 78 
 80 81 82 83 84 85 86 87 88 89 90 92 
 95 97 99 
 22 
 2 13 15 18 24 27 30 31 38 40 42 61 
 69 70 75 76 78 79 83 85 91 95 
 79 
 2 3 4 5 6 7 8 9 10 11 12 13 
 14 15 16 17 18 19 20 21 24 25 26 28 
 29 32 33 34 35 36 38 39 40 42 44 45 
 46 47 49 51 52 54 55 56 57 59 60 61 
 62 63 64 65 66 67 68 69 70 71 72 73 
 74 75 76 77 78 79 80 81 83 86 87 89 
 90 91 93 94 95 96 97 
 65 
 2 3 4 7 8 9 13 14 17 18 21 22 
 23 25 27 28 29 30 33 34 36 37 38 39 
 40 41 42 44 45 46 48 49 50 52 54 55 
 56 57 59 60 63 65 66 67 68 69 70 71 
 74 75 78 79 80 85 86 87 88 90 91 93 
 94 96 97 98 99 
 57 
 2 3 4 5 6 8 9 10 11 12 15 16 
 17 18 19 22 23 24 25 27 29 32 33 36 
 37 40 41 46 50 51 52 55 56 61 68 69 
 70 74 75 76 78 79 81 82 83 85 86 87 
 88 89 90 91 92 93 94 96 99 
 21 
 2 9 10 13 15 16 18 34 45 49 54 56 
 67 70 75 76 81 84 88 89 91 
 80 
 1 2 4 6 7 9 10 11 12 13 14 15 
 17 18 19 20 21 22 23 25 26 27 28 30 
 31 32 33 35 36 37 38 39 40 41 42 44 
 45 46 47 48 50 51 52 53 54 57 58 59 
 60 62 63 64 65 66 67 68 69 72 74 75 
 77 78 79 80 81 82 83 84 85 87 88 89 
 90 91 93 94 95 96 98 99 
 32 
 1 2 9 10 12 16 19 21 24 25 26 30 
 31 37 38 42 44 46 49 53 58 65 67 68 
 70 78 79 83 91 92 95 99 
 22 
 6 8 12 21 26 30 32 39 46 48 49 51 
 55 61 64 66 67 76 90 96 97 99 
 94 
 1 2 3 4 5 6 7 8 9 10 11 12 
 13 14 15 16 17 18 19 20 21 22 23 24 
 25 26 27 28 29 30 31 32 33 34 35 36 
 37 38 39 41 42 43 44 45 46 47 48 49 
 51 52 53 54 55 56 57 59 60 61 62 63 
 64 65 66 67 68 69 70 71 72 73 74 75 
 76 77 78 79 80 81 82 83 84 85 86 87 
 88 89 90 91 93 95 96 97 98 99 
 25 
 3 8 12 15 19 20 21 22 28 29 34 35 
 42 45 55 60 62 66 71 72 74 87 90 94 
 96 
 57 
 1 2 3 4 5 8 9 10 12 13 14 17 
 21 22 24 25 27 28 29 30 33 34 35 36 
 43 45 47 49 52 53 56 57 58 59 60 61 
 64 65 66 67 74 76 77 78 79 80 82 84 
 85 86 87 90 93 95 96 97 99 
 85 
 1 2 3 4 5 6 7 8 9 10 13 14 
 15 16 17 20 21 22 23 24 25 26 27 28 
 29 30 31 32 33 34 35 36 37 38 40 41 
 43 44 47 48 49 50 51 53 54 55 56 58 
 60 61 62 63 64 65 66 67 68 69 70 71 
 72 73 74 76 77 78 79 80 82 83 84 85 
 86 87 88 89 90 91 92 93 94 95 96 97 
 98 
 61 
 2 3 5 8 10 11 12 14 15 17 19 20 
 21 22 23 24 25 26 27 29 30 31 32 33 
 34 38 39 41 43 44 48 53 54 61 62 65 
 68 69 70 71 72 73 74 75 76 77 78 79 
 80 81 83 84 85 86 87 88 90 95 97 98 
 99 
 48 
 2 3 6 9 11 12 13 15 16 17 18 21 
 22 23 26 29 30 31 32 33 35 38 40 41 
 48 51 56 57 58 59 62 65 66 69 70 73 
 76 79 80 81 83 89 91 92 95 97 98 99 
 90 
 1 2 3 4 5 6 7 9 10 11 12 13 
 14 15 16 17 18 19 20 22 23 24 25 26 
 27 28 29 30 31 32 33 34 35 36 37 38 
 39 40 41 42 45 46 47 49 50 51 52 53 
 54 55 56 57 58 59 60 61 62 63 64 65 
 66 67 68 69 70 71 72 73 74 76 77 79 
 80 81 82 83 84 86 87 89 90 91 92 93 
 94 95 96 97 98 99 
 2 
 67 75 
 82 
 1 2 3 6 7 8 9 11 12 13 14 15 
 16 17 18 19 20 21 22 23 25 26 27 29 
 31 33 35 36 37 38 40 41 42 43 44 45 
 46 47 49 50 51 52 53 54 55 56 57 58 
 59 60 62 63 64 65 66 67 68 69 70 71 
 72 73 75 77 78 79 80 81 82 83 84 85 
 86 87 88 89 90 91 92 93 95 97 
 25 
 8 9 16 18 21 23 24 26 27 29 31 34 
 44 47 49 54 58 70 71 73 81 82 87 94 
 96 
 81 
 1 2 3 4 5 6 7 8 9 11 12 13 
 14 15 16 17 18 20 21 22 23 24 25 26 
 27 28 29 30 31 32 33 35 37 38 39 41 
 42 43 44 47 48 49 50 51 53 54 55 56 
 57 58 59 60 61 62 64 67 68 70 71 72 
 73 75 76 77 79 81 82 83 84 86 88 89 
 90 91 93 94 95 96 97 98 99 
 63 
 2 3 4 5 6 8 9 12 13 15 18 19 
 20 22 25 26 27 28 34 36 37 40 41 42 
 44 46 47 49 50 51 52 53 57 58 59 60 
 61 63 65 67 68 69 70 71 72 73 75 76 
 77 78 80 81 82 83 86 87 90 91 92 93 
 96 97 98 
 13 
 2 26 27 34 40 44 55 62 82 83 85 87 
 94 
 71 
 1 2 3 4 5 6 8 9 10 11 12 13 
 14 15 16 20 21 22 23 25 28 29 30 32 
 33 34 35 36 37 38 40 41 43 44 45 47 
 52 53 54 56 57 58 59 61 62 63 64 65 
 68 69 71 72 74 75 76 78 79 80 81 82 
 84 85 86 88 89 90 93 95 97 98 99 
 31 
 1 3 9 10 11 13 15 16 23 27 36 37 
 39 40 41 44 46 50 54 55 57 62 74 79 
 83 88 90 95 97 98 99 
 51 
 1 2 4 6 8 11 12 13 14 15 20 21 
 23 24 25 26 27 31 32 34 37 40 42 45 
 46 52 53 55 60 66 67 68 70 71 73 74 
 75 76 77 78 81 82 83 86 90 93 94 96 
 97 98 99 
 83 
 1 2 3 4 5 7 8 9 10 11 12 13 
 14 15 16 17 18 19 20 21 22 23 25 26 
 27 29 31 32 33 35 36 37 38 40 41 42 
 43 44 45 46 48 49 50 51 53 54 55 56 
 57 58 59 60 61 62 63 64 67 68 69 70 
 73 74 75 76 77 78 79 81 82 83 85 86 
 87 88 89 90 91 92 93 94 96 97 98 
 31 
 7 10 13 16 17 18 20 21 22 26 27 33 
 36 37 40 64 65 66 68 72 74 75 77 85 
 86 88 91 93 94 97 99 
 40 
 1 2 5 7 9 10 12 14 16 19 20 22 
 23 24 26 29 34 36 38 43 44 47 50 52 
 53 57 58 61 67 70 74 82 84 86 88 92 
 93 94 96 98 
 42 
 2 4 5 8 10 16 17 19 20 21 24 25 
 26 27 28 29 32 33 37 38 40 41 42 43 
 44 54 56 57 59 61 64 67 76 77 78 81 
 88 89 90 92 94 97 
 66 
 3 4 6 7 8 9 10 11 13 14 16 17 
 18 20 21 23 24 26 27 28 29 31 32 34 
 35 36 38 40 41 42 43 45 46 49 51 53 
 54 56 57 59 61 62 63 64 65 66 67 69 
 74 75 76 78 79 80 82 83 85 86 87 88 
 89 91 93 94 96 97 
 66 
 1 2 3 5 6 7 9 11 12 13 16 18 
 19 20 23 24 25 26 27 28 32 33 34 35 
 36 37 38 39 41 45 47 48 50 51 53 54 
 55 57 58 59 61 63 66 68 70 71 72 73 
 74 76 77 78 79 82 83 84 85 86 89 91 
 92 93 95 96 97 98 
 98 
 1 2 3 4 5 6 7 8 9 10 11 13 
 14 15 16 17 18 19 20 21 22 23 24 25 
 26 27 28 29 30 31 32 33 34 35 36 37 
 38 39 40 41 42 43 44 45 46 47 48 49 
 50 51 52 53 54 55 56 57 58 59 60 61 
 62 63 64 65 66 67 68 69 70 71 72 73 
 74 75 76 77 78 79 80 81 82 83 84 85 
 86 87 88 89 90 91 92 93 94 95 96 97 
 98 99 
 94 
 1 2 3 4 5 6 7 8 9 10 11 12 
 13 14 15 16 17 18 19 20 21 22 23 24 
 25 26 27 28 29 30 31 32 33 34 35 36 
 37 38 39 40 41 42 43 44 45 46 48 49 
 50 51 52 54 55 56 57 58 59 60 61 62 
 63 64 65 66 67 69 70 71 72 73 75 76 
 77 78 79 80 81 82 83 85 86 87 88 89 
 90 91 92 93 94 95 96 97 98 99 
 8 
 18 29 30 34 54 69 81 89 
 40 
 1 2 3 6 8 11 12 17 18 27 31 32 
 36 40 41 44 45 46 47 48 49 50 56 58 
 62 64 65 66 67 71 72 76 79 81 82 85 
 87 90 91 93 
 63 
 1 7 8 9 10 11 13 14 15 16 18 20 
 21 22 23 24 25 26 27 29 30 31 32 34 
 35 36 37 38 39 47 48 50 52 54 55 56 
 57 62 63 64 65 67 68 69 70 72 75 76 
 81 82 85 86 88 89 90 92 93 94 95 96 
 97 98 99 
 62 
 2 3 6 7 8 10 11 13 15 16 17 24 
 26 27 29 31 32 33 34 35 36 37 38 40 
 41 42 43 44 48 49 50 51 52 53 54 56 
 59 62 66 67 70 71 72 73 74 76 77 78 
 79 80 81 82 84 85 86 87 89 90 91 95 
 97 99 
 73 
 2 3 4 5 6 7 8 9 11 12 13 17 
 19 22 23 24 25 26 27 28 31 35 36 37 
 39 40 41 42 43 44 45 47 49 50 51 52 
 53 54 55 56 57 59 60 61 62 63 65 67 
 68 70 71 72 74 75 76 77 80 81 82 83 
 85 86 87 88 89 90 91 92 93 95 96 98 
 99 
 19 
 4 5 12 20 32 36 45 47 49 51 67 68 
 77 79 81 84 90 91 99 
 79 
 1 2 4 6 7 8 9 12 15 16 17 18 
 19 20 21 22 23 24 25 29 30 31 33 34 
 36 37 38 39 40 41 42 43 44 45 46 47 
 48 49 50 51 52 53 54 55 57 58 59 60 
 62 63 64 65 66 70 71 72 73 74 75 76 
 77 78 80 81 82 83 84 85 86 87 88 89 
 90 93 94 95 96 98 99 
 7 
 8 10 33 37 41 75 94 
 9 
 14 41 49 57 70 73 75 79 84 
 23 
 6 8 9 14 21 26 27 32 34 44 51 55 
 71 78 82 84 87 88 91 93 94 95 99 
 11 
 5 23 30 40 49 52 56 59 76 77 80 
 69 
 1 2 3 4 5 6 7 8 9 11 14 15 
 16 17 19 20 22 23 25 26 27 30 31 33 
 36 37 38 39 40 41 42 43 44 46 47 48 
 49 50 52 55 56 57 60 61 62 63 67 68 
 69 71 73 74 75 77 78 81 83 84 85 86 
 88 91 92 93 94 95 96 98 99 
 12 
 7 10 13 17 18 33 39 46 58 62 83 85 
 46 
 3 7 10 15 17 18 20 23 24 25 26 27 
 30 31 32 33 40 43 44 45 53 56 57 58 
 59 60 62 63 64 67 71 72 75 76 77 78 
 80 83 86 88 89 90 95 96 98 99 
 59 
 2 3 5 11 12 13 14 16 19 21 24 26 
 27 28 30 32 33 34 36 39 40 41 44 46 
 47 48 49 52 53 54 55 56 58 59 60 61 
 64 65 67 68 69 70 71 73 77 78 81 82 
 83 84 85 86 91 92 93 94 95 96 97 
 38 
 2 3 6 8 9 13 14 19 21 25 27 30 
 34 35 37 39 40 44 47 49 51 52 53 56 
 57 61 62 63 72 73 75 76 81 88 90 92 
 94 99 
 3 
 11 29 33 
 60 
 4 5 7 10 13 14 16 17 18 19 20 21 
 22 23 24 25 27 29 30 31 32 36 37 38 
 40 42 43 44 45 47 48 50 52 53 56 59 
 60 66 67 68 69 70 71 73 74 77 79 80 
 82 84 85 86 88 89 92 93 95 96 97 98 
 18 
 11 13 25 26 33 34 38 40 49 55 69 70 
 75 78 80 84 85 88 
 20 
 3 8 19 22 27 38 41 42 45 47 51 56 
 60 67 78 80 81 90 92 93 
 57 
 2 4 5 7 10 14 15 17 18 20 22 24 
 25 28 30 31 32 37 38 39 40 45 46 47 
 50 52 54 57 58 60 61 63 64 65 66 67 
 68 70 73 75 78 79 80 81 82 83 85 86 
 89 91 92 93 95 96 97 98 99 
 89 
 1 3 4 5 6 7 8 11 12 13 14 15 
 16 17 18 19 20 21 22 23 24 25 27 28 
 29 30 31 32 33 34 35 36 37 38 39 40 
 41 42 43 44 45 46 47 49 50 51 52 53 
 54 56 57 58 59 61 62 63 64 65 66 67 
 68 69 70 71 72 74 75 76 78 79 80 82 
 83 84 85 86 87 88 89 90 91 92 93 94 
 95 96 97 98 99 
 2 
 49 89 
 67 
 1 2 3 4 6 8 9 11 12 14 15 18 
 19 20 22 23 24 25 28 31 32 33 34 35 
 36 37 38 41 42 43 44 48 49 50 51 52 
 53 54 55 58 61 63 65 67 68 69 70 72 
 73 75 76 77 78 80 83 87 88 89 91 92 
 93 94 95 96 97 98 99 
 47 
 5 6 11 13 15 18 19 22 23 26 32 34 
 36 37 40 41 44 48 49 50 53 54 55 56 
 57 58 61 64 65 66 68 69 70 71 72 74 
 75 77 78 85 86 87 88 90 91 94 99 
 25 
 1 8 9 11 14 16 21 32 40 46 47 51 
 55 57 65 68 71 75 76 77 80 82 90 94 
 96 
 41 
 3 4 9 10 12 14 15 16 18 21 22 28 
 29 35 36 39 41 43 47 48 49 50 51 67 
 68 69 72 73 77 80 81 82 83 84 85 87 
 91 92 93 94 99 
 36 
 4 6 12 16 22 23 27 29 30 32 34 37 
 41 42 46 47 48 49 52 53 60 62 65 66 
 68 70 72 74 75 81 84 86 95 97 98 99 
 29 
 8 10 12 13 15 22 23 32 35 40 41 43 
 46 52 63 68 69 72 75 77 78 81 82 85 
 88 90 92 96 98 
 7 
 16 19 23 25 39 81 87 
 26 
 2 4 14 15 16 17 20 26 34 38 40 41 
 42 50 55 57 60 64 70 74 80 81 89 93 
 94 95 
 10 
 17 22 23 30 31 37 55 59 80 87 
 32 
 2 5 6 13 15 17 19 21 24 27 28 34 
 36 40 44 53 59 64 65 66 69 71 72 74 
 76 77 82 83 84 93 94 97 
 74 
 1 3 4 5 7 8 9 10 11 12 13 14 
 16 17 20 23 25 26 27 28 29 30 32 34 
 36 38 39 40 42 43 44 45 48 49 50 51 
 52 55 56 58 59 60 61 62 64 65 66 67 
 68 69 70 73 75 76 77 78 79 80 81 82 
 83 84 85 86 87 88 90 91 92 93 94 96 
 97 99 
 30 
 3 9 14 16 30 32 33 37 39 44 45 48 
 49 50 52 56 58 59 61 62 63 66 67 71 
 73 74 81 90 95 98 
 56 
 1 3 4 5 7 8 13 15 16 21 24 26 
 28 30 32 33 37 40 41 43 44 46 47 48 
 49 50 54 55 56 57 58 59 61 62 63 67 
 69 70 71 72 73 75 76 78 79 81 82 87 
 89 90 91 93 95 96 97 99 
 66 
 1 2 4 5 6 9 10 13 14 16 17 18 
 20 21 23 30 31 32 33 34 36 37 39 40 
 41 42 44 46 47 48 49 50 54 57 58 59 
 61 64 65 66 67 68 70 71 72 73 74 75 
 76 77 79 81 82 83 86 87 89 90 91 92 
 93 94 95 97 98 99 
 92 
 1 2 3 4 5 6 7 8 9 10 11 12 
 13 16 17 18 19 20 22 23 24 25 26 27 
 28 29 30 31 32 33 34 35 36 37 38 39 
 40 41 42 43 44 45 46 47 48 50 51 52 
 53 54 55 56 57 58 59 60 61 62 63 64 
 65 67 68 69 70 71 72 73 74 75 76 77 
 78 79 80 81 82 83 84 85 87 88 89 90 
 91 92 93 94 95 97 98 99 
 48 
 6 8 10 12 14 15 17 21 23 24 26 27 
 28 29 30 42 43 49 50 52 54 55 57 58 
 59 60 61 62 64 66 69 71 75 77 78 79 
 81 82 83 84 85 86 89 90 95 97 98 99 
 97 
 1 2 3 4 5 6 7 8 9 10 11 12 
 13 14 15 16 17 18 19 20 21 22 23 24 
 25 26 27 28 29 30 31 32 33 34 35 36 
 37 38 39 40 41 42 43 45 46 47 48 49 
 50 51 52 53 54 55 56 57 58 59 60 61 
 62 63 64 65 66 67 68 69 70 71 72 73 
 74 75 76 77 78 79 80 81 82 84 85 86 
 87 88 89 90 91 92 93 94 95 96 97 98 
 99 
 38 
 2 8 9 10 13 14 15 21 22 24 28 32 
 36 37 43 46 47 48 50 51 55 60 62 65 
 66 67 69 70 72 73 77 80 85 88 89 94 
 96 99 
 75 
 1 2 3 4 6 8 11 12 13 14 15 16 
 18 19 20 21 24 25 26 27 28 29 30 31 
 32 34 35 36 37 38 39 41 42 43 44 45 
 46 47 48 49 50 51 52 53 54 55 57 58 
 59 62 66 67 68 69 71 72 73 74 75 76 
 77 78 79 80 81 82 83 85 86 88 89 91 
 92 93 98 
 90 
 1 3 4 5 6 7 8 9 10 11 12 13 
 14 15 16 18 19 20 21 22 23 24 25 26 
 28 29 31 32 33 34 35 36 37 38 39 40 
 41 42 43 44 45 46 47 48 49 50 51 52 
 53 54 56 57 58 59 60 62 63 64 65 66 
 67 69 70 71 72 73 74 75 76 77 78 79 
 80 81 82 83 84 85 87 88 89 90 91 92 
 93 94 96 97 98 99 
 97 
 1 2 3 4 5 6 7 8 9 10 11 12 
 13 14 15 16 17 18 19 20 21 22 23 24 
 25 26 27 28 29 30 31 32 34 35 36 37 
 38 39 40 41 42 43 44 45 46 47 48 49 
 50 51 52 53 54 55 56 57 58 59 60 61 
 62 63 64 65 66 67 68 69 70 71 72 73 
 74 75 76 77 78 79 80 81 82 83 84 85 
 86 87 88 89 90 91 92 94 95 96 97 98 
 99 
 22 
 1 2 6 7 12 25 30 36 39 40 51 52 
 56 57 72 73 81 82 86 88 92 98 
 57 
 1 3 5 6 10 11 16 17 18 20 21 22 
 23 26 27 29 30 31 33 34 35 36 38 39 
 40 41 42 43 46 47 48 51 54 56 57 62 
 63 66 68 71 72 73 74 75 77 80 81 82 
 83 85 86 87 89 90 91 95 98 
 81 
 1 2 4 7 8 9 10 11 12 13 14 15 
 16 17 18 19 20 21 24 25 27 28 30 31 
 33 34 35 36 37 38 39 40 41 42 43 44 
 46 47 48 49 50 53 54 55 56 58 59 61 
 62 64 65 66 67 68 69 70 74 75 76 77 
 78 79 81 82 83 84 85 86 87 88 89 90 
 91 92 93 94 95 96 97 98 99 
 60 
 2 3 5 6 9 11 12 15 16 17 18 19 
 20 23 25 26 27 28 30 32 33 34 35 36 
 37 38 40 41 43 44 47 48 50 51 53 55 
 58 59 60 61 62 65 66 67 68 69 70 72 
 73 78 79 80 82 85 87 89 90 93 97 99 
 38 
 5 6 7 8 9 10 15 16 27 32 33 34 
 35 36 40 41 42 43 44 45 48 49 51 52 
 56 59 61 63 72 75 77 78 79 84 87 89 
 91 95 
 43 
 2 10 13 17 21 27 28 29 33 35 36 38 
 40 41 42 44 45 51 54 55 57 59 60 61 
 63 65 68 70 71 73 75 77 78 79 81 84 
 85 86 87 92 96 97 99 
 64 
 1 3 4 5 6 8 9 10 11 12 13 18 
 20 21 22 24 25 26 27 28 29 30 31 32 
 33 34 37 38 39 40 44 45 46 48 50 51 
 54 55 57 58 59 61 62 63 67 68 71 73 
 75 76 77 78 79 80 81 82 83 86 87 88 
 94 95 97 99 
 68 
 3 4 6 7 9 11 12 13 14 15 16 19 
 20 22 23 24 25 26 27 28 30 31 35 36 
 37 38 39 40 41 42 43 44 45 47 49 51 
 53 54 56 57 59 60 61 62 63 64 66 68 
 69 70 71 72 73 74 76 77 78 79 81 83 
 87 88 90 91 93 94 97 99 
 23 
 3 7 10 11 15 20 23 26 30 32 33 34 
 42 45 62 70 71 78 79 83 89 97 98 
 51 
 5 6 7 8 10 11 12 13 15 17 18 21 
 23 24 25 26 29 30 31 36 37 38 41 42 
 45 47 49 53 54 59 64 65 67 69 70 71 
 73 76 81 82 83 86 88 89 90 91 93 95 
 96 98 99 
 57 
 1 7 8 9 10 11 12 13 14 15 16 17 
 18 20 22 23 24 25 28 30 31 33 35 36 
 40 42 44 45 46 47 48 49 51 52 58 60 
 62 63 64 66 67 68 71 74 76 77 79 84 
 85 86 87 90 93 94 95 97 99 
 79 
 2 3 4 5 6 7 8 9 10 11 12 14 
 15 16 17 18 19 20 21 22 23 24 25 26 
 27 28 29 30 31 32 34 35 36 37 38 39 
 40 41 44 45 46 48 49 50 52 53 54 55 
 56 57 59 61 62 63 65 66 68 69 70 71 
 72 73 75 76 77 78 79 81 82 83 85 88 
 89 90 93 96 97 98 99 
 90 
 1 2 3 4 6 7 8 9 10 11 12 13 
 14 15 16 17 18 19 20 21 22 23 24 25 
 26 27 28 29 30 31 32 33 35 36 38 39 
 42 43 44 46 47 48 49 50 51 52 53 54 
 55 56 57 58 59 60 61 62 63 64 65 66 
 67 69 70 71 72 73 75 76 77 78 79 81 
 82 83 84 85 86 87 88 89 90 91 92 93 
 94 95 96 97 98 99 
 67 
 3 5 7 8 9 10 11 12 14 15 16 17 
 19 20 21 22 24 25 26 27 29 30 31 33 
 34 35 36 39 40 41 42 43 45 46 47 48 
 49 50 51 52 53 55 57 60 61 66 68 69 
 70 72 73 74 76 79 80 81 82 84 85 86 
 88 89 90 91 94 95 97 
 71 
 1 2 3 4 5 7 8 9 11 12 14 15 
 16 17 19 20 21 22 23 24 25 26 30 32 
 33 36 37 38 39 40 41 44 45 46 47 48 
 49 50 51 53 54 55 56 61 62 63 65 66 
 69 70 71 74 75 77 78 79 80 81 82 83 
 84 85 87 89 90 91 92 94 95 96 97 
 86 
 1 3 4 5 6 7 9 10 11 12 13 14 
 15 16 17 18 19 20 21 22 24 25 26 27 
 28 29 30 31 32 33 34 35 36 37 38 39 
 40 41 42 44 45 46 47 48 49 50 51 52 
 53 54 55 56 58 59 60 61 65 66 67 68 
 69 70 72 73 74 75 76 77 78 79 80 82 
 83 84 85 86 88 89 90 91 93 94 95 97 
 98 99 
 47 
 1 3 4 8 10 11 14 16 19 22 23 24 
 27 28 29 30 32 33 41 43 45 47 48 49 
 50 52 55 58 60 62 63 64 65 69 70 71 
 72 79 84 85 87 90 91 92 93 97 98 
 14 
 10 23 24 50 54 55 67 73 74 76 78 80 
 84 87 
 